c *********************************
c * Circuit generated by BenCGen
c *
c * NonRestoringArrayDivider_4
c *
c * Ports with 1 gate(s): 5
c * Ports with 2 gate(s): 97
c * Total gates: 102
c *********************************
p cnf 117 349
1 24 0
-1 -24 0
1 -23 0
24 -23 0
-1 -24 23 0
23 25 0
-23 -25 0
23 -20 0
-23 20 0
23 -21 0
-23 21 0
23 -22 0
-23 22 0
25 8 -31 0
-25 8 31 0
25 -8 31 0
-25 -8 -31 0
4 31 -32 0
-4 31 32 0
4 -31 32 0
-4 -31 -32 0
32 25 -26 0
-32 25 26 0
32 -25 26 0
-32 -25 -26 0
25 -33 0
32 -33 0
-25 -32 33 0
31 -34 0
4 -34 0
-31 -4 34 0
-33 30 0
-34 30 0
33 34 -30 0
25 9 -36 0
-25 9 36 0
25 -9 36 0
-25 -9 -36 0
5 36 -37 0
-5 36 37 0
5 -36 37 0
-5 -36 -37 0
37 30 -27 0
-37 30 27 0
37 -30 27 0
-37 -30 -27 0
30 -38 0
37 -38 0
-30 -37 38 0
36 -39 0
5 -39 0
-36 -5 39 0
-38 35 0
-39 35 0
38 39 -35 0
25 10 -41 0
-25 10 41 0
25 -10 41 0
-25 -10 -41 0
6 41 -42 0
-6 41 42 0
6 -41 42 0
-6 -41 -42 0
42 35 -28 0
-42 35 28 0
42 -35 28 0
-42 -35 -28 0
35 -43 0
42 -43 0
-35 -42 43 0
41 -44 0
6 -44 0
-41 -6 44 0
-43 40 0
-44 40 0
43 44 -40 0
25 11 -45 0
-25 11 45 0
25 -11 45 0
-25 -11 -45 0
7 45 -46 0
-7 45 46 0
7 -45 46 0
-7 -45 -46 0
46 40 -29 0
-46 40 29 0
46 -40 29 0
-46 -40 -29 0
40 -47 0
46 -47 0
-40 -46 47 0
45 -48 0
7 -48 0
-45 -7 48 0
-47 15 0
-48 15 0
47 48 -15 0
15 8 -54 0
-15 8 54 0
15 -8 54 0
-15 -8 -54 0
3 54 -55 0
-3 54 55 0
3 -54 55 0
-3 -54 -55 0
55 15 -49 0
-55 15 49 0
55 -15 49 0
-55 -15 -49 0
15 -56 0
55 -56 0
-15 -55 56 0
54 -57 0
3 -57 0
-54 -3 57 0
-56 53 0
-57 53 0
56 57 -53 0
15 9 -59 0
-15 9 59 0
15 -9 59 0
-15 -9 -59 0
26 59 -60 0
-26 59 60 0
26 -59 60 0
-26 -59 -60 0
60 53 -50 0
-60 53 50 0
60 -53 50 0
-60 -53 -50 0
53 -61 0
60 -61 0
-53 -60 61 0
59 -62 0
26 -62 0
-59 -26 62 0
-61 58 0
-62 58 0
61 62 -58 0
15 10 -64 0
-15 10 64 0
15 -10 64 0
-15 -10 -64 0
27 64 -65 0
-27 64 65 0
27 -64 65 0
-27 -64 -65 0
65 58 -51 0
-65 58 51 0
65 -58 51 0
-65 -58 -51 0
58 -66 0
65 -66 0
-58 -65 66 0
64 -67 0
27 -67 0
-64 -27 67 0
-66 63 0
-67 63 0
66 67 -63 0
15 11 -68 0
-15 11 68 0
15 -11 68 0
-15 -11 -68 0
28 68 -69 0
-28 68 69 0
28 -68 69 0
-28 -68 -69 0
69 63 -52 0
-69 63 52 0
69 -63 52 0
-69 -63 -52 0
63 -70 0
69 -70 0
-63 -69 70 0
68 -71 0
28 -71 0
-68 -28 71 0
-70 14 0
-71 14 0
70 71 -14 0
14 8 -77 0
-14 8 77 0
14 -8 77 0
-14 -8 -77 0
2 77 -78 0
-2 77 78 0
2 -77 78 0
-2 -77 -78 0
78 14 -72 0
-78 14 72 0
78 -14 72 0
-78 -14 -72 0
14 -79 0
78 -79 0
-14 -78 79 0
77 -80 0
2 -80 0
-77 -2 80 0
-79 76 0
-80 76 0
79 80 -76 0
14 9 -82 0
-14 9 82 0
14 -9 82 0
-14 -9 -82 0
49 82 -83 0
-49 82 83 0
49 -82 83 0
-49 -82 -83 0
83 76 -73 0
-83 76 73 0
83 -76 73 0
-83 -76 -73 0
76 -84 0
83 -84 0
-76 -83 84 0
82 -85 0
49 -85 0
-82 -49 85 0
-84 81 0
-85 81 0
84 85 -81 0
14 10 -87 0
-14 10 87 0
14 -10 87 0
-14 -10 -87 0
50 87 -88 0
-50 87 88 0
50 -87 88 0
-50 -87 -88 0
88 81 -74 0
-88 81 74 0
88 -81 74 0
-88 -81 -74 0
81 -89 0
88 -89 0
-81 -88 89 0
87 -90 0
50 -90 0
-87 -50 90 0
-89 86 0
-90 86 0
89 90 -86 0
14 11 -91 0
-14 11 91 0
14 -11 91 0
-14 -11 -91 0
51 91 -92 0
-51 91 92 0
51 -91 92 0
-51 -91 -92 0
92 86 -75 0
-92 86 75 0
92 -86 75 0
-92 -86 -75 0
86 -93 0
92 -93 0
-86 -92 93 0
91 -94 0
51 -94 0
-91 -51 94 0
-93 13 0
-94 13 0
93 94 -13 0
13 8 -96 0
-13 8 96 0
13 -8 96 0
-13 -8 -96 0
1 96 -97 0
-1 96 97 0
1 -96 97 0
-1 -96 -97 0
97 13 -16 0
-97 13 16 0
97 -13 16 0
-97 -13 -16 0
13 -98 0
97 -98 0
-13 -97 98 0
96 -99 0
1 -99 0
-96 -1 99 0
-98 95 0
-99 95 0
98 99 -95 0
13 9 -101 0
-13 9 101 0
13 -9 101 0
-13 -9 -101 0
72 101 -102 0
-72 101 102 0
72 -101 102 0
-72 -101 -102 0
102 95 -17 0
-102 95 17 0
102 -95 17 0
-102 -95 -17 0
95 -103 0
102 -103 0
-95 -102 103 0
101 -104 0
72 -104 0
-101 -72 104 0
-103 100 0
-104 100 0
103 104 -100 0
13 10 -106 0
-13 10 106 0
13 -10 106 0
-13 -10 -106 0
73 106 -107 0
-73 106 107 0
73 -106 107 0
-73 -106 -107 0
107 100 -18 0
-107 100 18 0
107 -100 18 0
-107 -100 -18 0
100 -108 0
107 -108 0
-100 -107 108 0
106 -109 0
73 -109 0
-106 -73 109 0
-108 105 0
-109 105 0
108 109 -105 0
13 11 -110 0
-13 11 110 0
13 -11 110 0
-13 -11 -110 0
74 110 -111 0
-74 110 111 0
74 -110 111 0
-74 -110 -111 0
111 105 -19 0
-111 105 19 0
111 -105 19 0
-111 -105 -19 0
105 -112 0
111 -112 0
-105 -111 112 0
110 -113 0
74 -113 0
-110 -74 113 0
-112 12 0
-113 12 0
112 113 -12 0
